(set-logic QF_S)
(set-info :source |  Sleek solver
  http://loris-7.ddns.comp.nus.edu.sg/~project/s2/beta/
|)

(set-info :smt-lib-version 2.0)
(set-info :category "crafted")
(set-info :status unsat)


(declare-sort node 0)
(declare-fun ele () (Field node Int))
(declare-fun height () (Field node Int))
(declare-fun left () (Field node node))
(declare-fun right () (Field node node))

(define-fun avl ((?in node) (?m Int) (?n Int) (?bal Int))
Space (tospace
(or
(and 
(= ?in nil)
(= ?m 0)
(= ?n 0)
(= ?bal 1)

)(exists ((?n_80 Int))(and 
(= ?m (+ (+ ?m2 1) ?m1))
(<= (+ 0 ?n2) (+ ?n1 1))
(<= ?n1 (+ 1 ?n2))
(= (+ ?bal ?n2) (+ 1 ?n1))
(= ?n_80 ?n)
(tobool (ssep 
(pto ?in (sref (ref ele ?Anon_14) (ref height ?n_80) (ref left ?p) (ref right ?q) ))
(avl ?p ?m1 ?n1 ?Anon_15)
(avl ?q ?m2 ?n2 ?Anon_16)
) )
)))))






































































































































































































































































































































(declare-fun Anon95 () Int)
(declare-fun p5 () node)
(declare-fun Anon96 () Int)
(declare-fun v54prm () node)
(declare-fun q5 () node)
(declare-fun t6 () node)
(declare-fun x () Int)
(declare-fun tmpprm () node)
(declare-fun tprm () node)
(declare-fun n21 () Int)
(declare-fun b () Int)
(declare-fun tn () Int)
(declare-fun n20 () Int)
(declare-fun n19 () Int)
(declare-fun tm () Int)
(declare-fun m17 () Int)
(declare-fun m16 () Int)
(declare-fun Anon97 () Int)
(declare-fun xprm () Int)


(assert 
(and 
;lexvar(= v54prm q5)
(= tprm t6)
(= xprm x)
(= tmpprm nil)
(distinct tprm nil)
(= n21 tn)
(= (+ b n19) (+ 1 n20))
(<= n20 (+ 1 n19))
(<= (+ 0 n19) (+ n20 1))
(= tm (+ (+ m16 1) m17))
(<= Anon97 xprm)
(tobool (ssep 
(avl p5 m17 n20 Anon95)
(pto tprm (sref (ref ele Anon97) (ref height n21) (ref left p5) (ref right q5) ))
(avl q5 m16 n19 Anon96)
) )
)
)

(assert (not 
(and 
(tobool  
(avl v54prm tm2 tn2 b12)
 )
)
))

(check-sat)